c FILE			: uw_15.gr
c No. of vertices	: 15
c No. of directed edges	: 58
c Max. weight		: 100
c Min. weight		: 0
c A directed arc from u to v of weight w
c is represented below as ' a  u  v  w '
p sp 15 58
a 1 5 66
a 1 9 55
a 1 10 87
a 1 11 8
a 1 13 78
a 2 11 12
a 2 15 65
a 3 1 4
a 3 9 21
a 3 12 22
a 4 2 27
a 5 1 49
a 5 3 2
a 5 4 98
a 5 8 58
a 5 9 27
a 6 8 57
a 6 14 21
a 7 2 38
a 7 3 93
a 7 4 61
a 7 5 99
a 7 8 99
a 7 9 20
a 7 11 58
a 7 14 82
a 8 4 60
a 8 11 58
a 8 12 65
a 9 1 84
a 9 2 61
a 9 3 17
a 9 5 65
a 9 8 87
a 9 11 21
a 9 13 33
a 10 1 44
a 10 9 95
a 11 7 94
a 11 10 68
a 12 6 69
a 12 7 73
a 13 1 64
a 13 3 89
a 13 4 86
a 13 5 59
a 13 6 82
a 13 9 15
a 13 10 15
a 13 12 25
a 13 14 45
a 13 15 24
a 14 3 44
a 14 8 41
a 14 9 79
a 14 11 46
a 14 12 70
a 15 10 68
